p edge 100 495
e 1 3
e 1 12
e 1 16
e 1 22
e 1 34
e 1 38
e 1 41
e 1 42
e 1 44
e 1 50
e 1 66
e 1 75
e 1 86
e 1 98
e 2 36
e 2 43
e 2 79
e 2 80
e 2 85
e 2 99
e 3 8
e 3 10
e 3 12
e 3 16
e 3 34
e 3 39
e 3 56
e 3 65
e 3 66
e 3 70
e 3 87
e 4 6
e 4 9
e 4 12
e 4 54
e 4 68
e 4 70
e 4 74
e 4 82
e 4 99
e 5 7
e 5 46
e 5 66
e 5 70
e 5 84
e 5 86
e 5 87
e 5 94
e 6 11
e 6 23
e 6 37
e 6 41
e 6 76
e 6 78
e 6 84
e 7 13
e 7 14
e 7 33
e 7 34
e 7 49
e 7 51
e 7 60
e 7 74
e 7 84
e 8 9
e 8 12
e 8 14
e 8 20
e 8 24
e 8 25
e 8 40
e 8 76
e 8 81
e 8 82
e 8 92
e 9 13
e 9 21
e 9 25
e 9 29
e 9 37
e 9 63
e 9 68
e 9 69
e 9 96
e 10 19
e 10 27
e 10 33
e 10 34
e 10 39
e 10 68
e 10 76
e 10 84
e 11 22
e 11 30
e 11 42
e 11 49
e 11 52
e 11 83
e 11 99
e 12 23
e 12 27
e 12 28
e 12 42
e 12 47
e 12 49
e 12 64
e 12 86
e 13 20
e 13 39
e 13 47
e 13 61
e 13 64
e 13 79
e 13 88
e 13 95
e 14 23
e 14 36
e 14 45
e 14 52
e 14 55
e 14 83
e 14 85
e 14 87
e 14 92
e 15 18
e 15 21
e 15 29
e 15 75
e 15 86
e 15 100
e 16 22
e 16 23
e 16 24
e 16 54
e 16 65
e 16 72
e 17 30
e 17 41
e 17 42
e 17 44
e 17 61
e 17 64
e 17 98
e 18 21
e 18 28
e 18 32
e 18 36
e 18 46
e 18 57
e 18 59
e 18 65
e 18 75
e 18 99
e 19 24
e 19 31
e 19 37
e 19 70
e 19 77
e 19 80
e 19 86
e 19 96
e 20 33
e 20 60
e 20 96
e 20 98
e 21 34
e 21 36
e 21 40
e 21 57
e 21 71
e 21 73
e 21 80
e 21 90
e 22 23
e 22 25
e 22 34
e 22 57
e 22 58
e 22 59
e 22 61
e 22 67
e 22 68
e 22 91
e 22 97
e 23 35
e 23 62
e 23 67
e 23 70
e 23 78
e 23 79
e 23 91
e 23 92
e 23 99
e 24 29
e 24 38
e 24 43
e 24 46
e 24 62
e 24 77
e 24 81
e 24 98
e 25 30
e 25 31
e 25 36
e 25 41
e 25 47
e 25 57
e 25 86
e 25 87
e 25 96
e 26 34
e 26 58
e 26 70
e 26 77
e 26 82
e 26 93
e 27 47
e 27 50
e 27 53
e 27 67
e 27 79
e 27 87
e 27 90
e 27 91
e 27 92
e 28 43
e 28 57
e 28 66
e 28 68
e 28 73
e 28 76
e 28 91
e 28 98
e 29 50
e 29 56
e 29 76
e 29 83
e 29 87
e 29 88
e 29 94
e 29 96
e 29 98
e 30 69
e 30 87
e 30 89
e 30 93
e 30 99
e 31 41
e 31 53
e 31 56
e 31 72
e 31 81
e 31 86
e 31 93
e 32 39
e 32 46
e 33 41
e 33 58
e 33 59
e 33 64
e 33 74
e 33 78
e 33 89
e 33 96
e 34 37
e 34 44
e 34 47
e 34 76
e 34 77
e 34 94
e 34 97
e 35 66
e 35 68
e 35 80
e 35 82
e 35 89
e 35 98
e 36 41
e 36 50
e 36 53
e 36 55
e 36 73
e 36 95
e 36 98
e 37 46
e 37 50
e 37 69
e 37 80
e 37 84
e 37 86
e 37 93
e 37 95
e 37 98
e 38 45
e 38 47
e 38 63
e 38 89
e 38 96
e 39 48
e 39 57
e 39 65
e 39 82
e 40 43
e 40 66
e 40 69
e 40 81
e 40 89
e 40 94
e 41 56
e 41 60
e 41 62
e 41 65
e 41 85
e 41 96
e 41 98
e 42 49
e 42 52
e 42 54
e 42 74
e 42 82
e 43 45
e 43 54
e 44 55
e 44 59
e 44 60
e 44 67
e 44 68
e 44 87
e 44 99
e 45 53
e 45 81
e 46 47
e 46 57
e 46 58
e 46 61
e 46 92
e 47 49
e 47 66
e 47 67
e 47 82
e 47 86
e 47 93
e 48 71
e 48 72
e 48 73
e 48 82
e 48 87
e 48 92
e 48 93
e 48 96
e 49 50
e 49 58
e 49 66
e 49 77
e 49 86
e 49 97
e 50 55
e 50 57
e 50 70
e 50 72
e 50 83
e 50 86
e 51 56
e 51 63
e 51 68
e 51 71
e 51 72
e 51 83
e 51 90
e 51 92
e 51 96
e 52 59
e 52 61
e 52 80
e 52 82
e 52 96
e 52 99
e 53 54
e 54 59
e 54 64
e 54 81
e 54 83
e 54 84
e 54 86
e 55 56
e 55 76
e 55 88
e 55 91
e 55 95
e 56 61
e 56 67
e 56 70
e 56 75
e 56 77
e 56 84
e 56 95
e 57 65
e 57 67
e 57 73
e 57 80
e 57 87
e 57 96
e 58 78
e 58 82
e 58 85
e 58 92
e 58 94
e 59 81
e 59 83
e 59 86
e 59 94
e 59 96
e 59 98
e 60 61
e 60 69
e 60 72
e 60 80
e 60 86
e 60 90
e 60 93
e 60 95
e 61 62
e 62 76
e 62 78
e 62 80
e 62 85
e 62 88
e 62 94
e 62 97
e 62 99
e 62 100
e 63 69
e 63 72
e 64 78
e 64 82
e 64 100
e 65 66
e 65 75
e 66 67
e 66 79
e 66 87
e 66 91
e 66 96
e 66 97
e 67 79
e 67 86
e 68 81
e 68 87
e 68 88
e 68 92
e 68 95
e 68 98
e 69 74
e 69 85
e 69 94
e 70 76
e 70 84
e 70 87
e 70 88
e 70 92
e 70 97
e 71 75
e 71 80
e 71 88
e 71 99
e 72 83
e 73 76
e 73 79
e 73 87
e 73 96
e 74 75
e 74 81
e 74 83
e 74 97
e 75 93
e 77 92
e 78 85
e 78 91
e 79 97
e 81 85
e 81 87
e 82 84
e 82 96
e 82 98
e 83 94
e 84 87
e 87 92
e 87 96
e 89 91
e 89 92
e 90 92
e 91 92
e 92 97
e 93 94
e 97 99
